c clasp version 2.1.4
c Reading from ...arks/23_Nodes/PBencd_EuclideanCost.opb
c Solving...
o 833
o 823
o 822
o 782
o 778
o 776
o 766
o 760
o 758
o 756
o 754
o 751
o 725
o 707
o 704
o 665
o 661
o 658
o 651
o 620
o 611
o 601
o 588
o 587
o 584
o 574
o 565
o 563
o 558
o 555
o 554
o 545
o 544
o 543
o 534
o 530
o 525
o 519
o 514
o 502
o 473
o 470
o 469
o 466
o 459
o 457
o 454
o 451
o 450
o 447
o 442
o 435
o 431
o 409
o 404
o 395
o 387
o 373
o 366
o 364
o 362
o 359
o 340
o 338
o 336
o 334
o 333
o 329
o 324
o 318
o 316
o 315
o 313
o 307
o 303
o 302
o 298
o 296
o 287
o 284
o 282
